solution status: optimal solution found
objective value:                                    0
bank.collect_flush_hole_y                         -25 	(obj:0)
bank.collect_flush_hole_z                         -21 	(obj:0)
bank.lysis_out_ctrl_hole_y                        -22 	(obj:0)
bank.lysis_out_ctrl_hole_z                        -24 	(obj:0)
bank.waste_flush_hole_y                           -24 	(obj:0)
bank.waste_flush_hole_z                           -24 	(obj:0)
bank.collect_hole_y                               -23 	(obj:0)
bank.collect_hole_z                               -24 	(obj:0)
bank.lysis_buffer_out_hole_y                      -22 	(obj:0)
bank.lysis_buffer_out_hole_z                      -25 	(obj:0)
bank.waste_out_hole_y                             -25 	(obj:0)
bank.waste_out_hole_z                             -24 	(obj:0)
bank.collect_ctrl_hole_y                          -25 	(obj:0)
bank.collect_ctrl_hole_z                          -23 	(obj:0)
$_3__1_y                                          -23 	(obj:0)
$_3__1_z                                          -25 	(obj:0)
$_5__1_y                                          -25 	(obj:0)
$_5__1_z                                          -22 	(obj:0)
bank.lysis_out_flush_hole_y                       -24 	(obj:0)
bank.lysis_out_flush_hole_z                       -25 	(obj:0)
bank.waste_ctrl_hole_y                            -25 	(obj:0)
bank.waste_ctrl_hole_z                            -25 	(obj:0)
